0	0	0
21	0	16
58	-4	18
9	15	1
-12	-31	13
28	-40	8
58	-39	23
-1	-21	7
30	46	27
40	38	1
44	-18	3
55	44	6
36	-4	24
22	-26	19
40	12	2
-2	2	5
7	-10	16
35	11	7
-28	45	4
60	5	22
54	16	7
5	-4	23
15	-21	16
40	19	2
34	33	2
-1	42	9
-22	27	2
37	50	12
-27	20	1
-29	3	9
-13	26	23
-30	22	6
-26	15	19
12	-44	7
-12	8	7
-20	43	20
-16	7	20
